307,216
515,919
871,780
196,563
444,369
387,555
385,360
738,388
975,555
765,939
802,318
695,494
1001,569
1055,596
533,-50
586,219
300,25
237,336
552,805
463,248
742,21
681,316
738,388
829,429
399,18
695,318
560,318
326,350
602,909
735,300
342,652
171,406
613,273
417,770
850,529
829,554
